c n orig vars 108
p cnf 425 1318
109 -1 0
109 -2 0
-109 1 2 0
110 -3 0
110 -4 0
-110 3 4 0
111 -5 0
111 -6 0
-111 5 6 0
112 -7 0
112 -8 0
-112 7 8 0
113 -9 0
113 -10 0
-113 9 10 0
114 -11 0
114 -12 0
-114 11 12 0
115 -13 0
115 -14 0
-115 13 14 0
116 -15 0
116 -16 0
-116 15 16 0
117 -17 0
117 -18 0
-117 17 18 0
118 -19 0
118 -20 0
-118 19 20 0
119 -21 0
119 -22 0
-119 21 22 0
120 -23 0
120 -24 0
-120 23 24 0
121 -25 0
121 -26 0
-121 25 26 0
122 -27 0
122 -28 0
-122 27 28 0
123 -29 0
123 -30 0
-123 29 30 0
124 -31 0
124 -32 0
-124 31 32 0
125 -33 0
125 -34 0
-125 33 34 0
126 -35 0
126 -36 0
-126 35 36 0
-127 109 0
-127 110 0
-127 111 0
-127 112 0
-127 113 0
-127 114 0
-127 115 0
-127 116 0
-127 117 0
-127 118 0
-127 119 0
-127 120 0
-127 121 0
-127 122 0
-127 123 0
-127 124 0
-127 125 0
-127 126 0
127 -109 -110 -111 -112 -113 -114 -115 -116 -117 -118 -119 -120 -121 -122 -123 -124 -125 -126 0
-127 0
128 -37 0
128 -46 0
128 -55 0
128 -64 0
128 -73 0
128 -82 0
128 -91 0
128 -100 0
-128 37 46 55 64 73 82 91 100 0
129 -38 0
129 -47 0
129 -56 0
129 -65 0
129 -74 0
129 -83 0
129 -92 0
129 -101 0
-129 38 47 56 65 74 83 92 101 0
130 -39 0
130 -48 0
130 -57 0
130 -66 0
130 -75 0
130 -84 0
130 -93 0
130 -102 0
-130 39 48 57 66 75 84 93 102 0
131 -40 0
131 -49 0
131 -58 0
131 -67 0
131 -76 0
131 -85 0
131 -94 0
131 -103 0
-131 40 49 58 67 76 85 94 103 0
132 -41 0
132 -50 0
132 -59 0
132 -68 0
132 -77 0
132 -86 0
132 -95 0
132 -104 0
-132 41 50 59 68 77 86 95 104 0
133 -42 0
133 -51 0
133 -60 0
133 -69 0
133 -78 0
133 -87 0
133 -96 0
133 -105 0
-133 42 51 60 69 78 87 96 105 0
134 -43 0
134 -52 0
134 -61 0
134 -70 0
134 -79 0
134 -88 0
134 -97 0
134 -106 0
-134 43 52 61 70 79 88 97 106 0
135 -44 0
135 -53 0
135 -62 0
135 -71 0
135 -80 0
135 -89 0
135 -98 0
135 -107 0
-135 44 53 62 71 80 89 98 107 0
136 -45 0
136 -54 0
136 -63 0
136 -72 0
136 -81 0
136 -90 0
136 -99 0
136 -108 0
-136 45 54 63 72 81 90 99 108 0
137 37 0
137 38 0
-137 -37 -38 0
138 37 0
138 39 0
-138 -37 -39 0
139 37 0
139 40 0
-139 -37 -40 0
140 37 0
140 41 0
-140 -37 -41 0
141 37 0
141 42 0
-141 -37 -42 0
142 37 0
142 43 0
-142 -37 -43 0
143 37 0
143 44 0
-143 -37 -44 0
144 37 0
144 45 0
-144 -37 -45 0
145 38 0
145 39 0
-145 -38 -39 0
146 38 0
146 40 0
-146 -38 -40 0
147 38 0
147 41 0
-147 -38 -41 0
148 38 0
148 42 0
-148 -38 -42 0
149 38 0
149 43 0
-149 -38 -43 0
150 38 0
150 44 0
-150 -38 -44 0
151 38 0
151 45 0
-151 -38 -45 0
152 39 0
152 40 0
-152 -39 -40 0
153 39 0
153 41 0
-153 -39 -41 0
154 39 0
154 42 0
-154 -39 -42 0
155 39 0
155 43 0
-155 -39 -43 0
156 39 0
156 44 0
-156 -39 -44 0
157 39 0
157 45 0
-157 -39 -45 0
158 40 0
158 41 0
-158 -40 -41 0
159 40 0
159 42 0
-159 -40 -42 0
160 40 0
160 43 0
-160 -40 -43 0
161 40 0
161 44 0
-161 -40 -44 0
162 40 0
162 45 0
-162 -40 -45 0
163 41 0
163 42 0
-163 -41 -42 0
164 41 0
164 43 0
-164 -41 -43 0
165 41 0
165 44 0
-165 -41 -44 0
166 41 0
166 45 0
-166 -41 -45 0
167 42 0
167 43 0
-167 -42 -43 0
168 42 0
168 44 0
-168 -42 -44 0
169 42 0
169 45 0
-169 -42 -45 0
170 43 0
170 44 0
-170 -43 -44 0
171 43 0
171 45 0
-171 -43 -45 0
172 44 0
172 45 0
-172 -44 -45 0
173 46 0
173 47 0
-173 -46 -47 0
174 46 0
174 48 0
-174 -46 -48 0
175 46 0
175 49 0
-175 -46 -49 0
176 46 0
176 50 0
-176 -46 -50 0
177 46 0
177 51 0
-177 -46 -51 0
178 46 0
178 52 0
-178 -46 -52 0
179 46 0
179 53 0
-179 -46 -53 0
180 46 0
180 54 0
-180 -46 -54 0
181 47 0
181 48 0
-181 -47 -48 0
182 47 0
182 49 0
-182 -47 -49 0
183 47 0
183 50 0
-183 -47 -50 0
184 47 0
184 51 0
-184 -47 -51 0
185 47 0
185 52 0
-185 -47 -52 0
186 47 0
186 53 0
-186 -47 -53 0
187 47 0
187 54 0
-187 -47 -54 0
188 48 0
188 49 0
-188 -48 -49 0
189 48 0
189 50 0
-189 -48 -50 0
190 48 0
190 51 0
-190 -48 -51 0
191 48 0
191 52 0
-191 -48 -52 0
192 48 0
192 53 0
-192 -48 -53 0
193 48 0
193 54 0
-193 -48 -54 0
194 49 0
194 50 0
-194 -49 -50 0
195 49 0
195 51 0
-195 -49 -51 0
196 49 0
196 52 0
-196 -49 -52 0
197 49 0
197 53 0
-197 -49 -53 0
198 49 0
198 54 0
-198 -49 -54 0
199 50 0
199 51 0
-199 -50 -51 0
200 50 0
200 52 0
-200 -50 -52 0
201 50 0
201 53 0
-201 -50 -53 0
202 50 0
202 54 0
-202 -50 -54 0
203 51 0
203 52 0
-203 -51 -52 0
204 51 0
204 53 0
-204 -51 -53 0
205 51 0
205 54 0
-205 -51 -54 0
206 52 0
206 53 0
-206 -52 -53 0
207 52 0
207 54 0
-207 -52 -54 0
208 53 0
208 54 0
-208 -53 -54 0
209 55 0
209 56 0
-209 -55 -56 0
210 55 0
210 57 0
-210 -55 -57 0
211 55 0
211 58 0
-211 -55 -58 0
212 55 0
212 59 0
-212 -55 -59 0
213 55 0
213 60 0
-213 -55 -60 0
214 55 0
214 61 0
-214 -55 -61 0
215 55 0
215 62 0
-215 -55 -62 0
216 55 0
216 63 0
-216 -55 -63 0
217 56 0
217 57 0
-217 -56 -57 0
218 56 0
218 58 0
-218 -56 -58 0
219 56 0
219 59 0
-219 -56 -59 0
220 56 0
220 60 0
-220 -56 -60 0
221 56 0
221 61 0
-221 -56 -61 0
222 56 0
222 62 0
-222 -56 -62 0
223 56 0
223 63 0
-223 -56 -63 0
224 57 0
224 58 0
-224 -57 -58 0
225 57 0
225 59 0
-225 -57 -59 0
226 57 0
226 60 0
-226 -57 -60 0
227 57 0
227 61 0
-227 -57 -61 0
228 57 0
228 62 0
-228 -57 -62 0
229 57 0
229 63 0
-229 -57 -63 0
230 58 0
230 59 0
-230 -58 -59 0
231 58 0
231 60 0
-231 -58 -60 0
232 58 0
232 61 0
-232 -58 -61 0
233 58 0
233 62 0
-233 -58 -62 0
234 58 0
234 63 0
-234 -58 -63 0
235 59 0
235 60 0
-235 -59 -60 0
236 59 0
236 61 0
-236 -59 -61 0
237 59 0
237 62 0
-237 -59 -62 0
238 59 0
238 63 0
-238 -59 -63 0
239 60 0
239 61 0
-239 -60 -61 0
240 60 0
240 62 0
-240 -60 -62 0
241 60 0
241 63 0
-241 -60 -63 0
242 61 0
242 62 0
-242 -61 -62 0
243 61 0
243 63 0
-243 -61 -63 0
244 62 0
244 63 0
-244 -62 -63 0
245 64 0
245 65 0
-245 -64 -65 0
246 64 0
246 66 0
-246 -64 -66 0
247 64 0
247 67 0
-247 -64 -67 0
248 64 0
248 68 0
-248 -64 -68 0
249 64 0
249 69 0
-249 -64 -69 0
250 64 0
250 70 0
-250 -64 -70 0
251 64 0
251 71 0
-251 -64 -71 0
252 64 0
252 72 0
-252 -64 -72 0
253 65 0
253 66 0
-253 -65 -66 0
254 65 0
254 67 0
-254 -65 -67 0
255 65 0
255 68 0
-255 -65 -68 0
256 65 0
256 69 0
-256 -65 -69 0
257 65 0
257 70 0
-257 -65 -70 0
258 65 0
258 71 0
-258 -65 -71 0
259 65 0
259 72 0
-259 -65 -72 0
260 66 0
260 67 0
-260 -66 -67 0
261 66 0
261 68 0
-261 -66 -68 0
262 66 0
262 69 0
-262 -66 -69 0
263 66 0
263 70 0
-263 -66 -70 0
264 66 0
264 71 0
-264 -66 -71 0
265 66 0
265 72 0
-265 -66 -72 0
266 67 0
266 68 0
-266 -67 -68 0
267 67 0
267 69 0
-267 -67 -69 0
268 67 0
268 70 0
-268 -67 -70 0
269 67 0
269 71 0
-269 -67 -71 0
270 67 0
270 72 0
-270 -67 -72 0
271 68 0
271 69 0
-271 -68 -69 0
272 68 0
272 70 0
-272 -68 -70 0
273 68 0
273 71 0
-273 -68 -71 0
274 68 0
274 72 0
-274 -68 -72 0
275 69 0
275 70 0
-275 -69 -70 0
276 69 0
276 71 0
-276 -69 -71 0
277 69 0
277 72 0
-277 -69 -72 0
278 70 0
278 71 0
-278 -70 -71 0
279 70 0
279 72 0
-279 -70 -72 0
280 71 0
280 72 0
-280 -71 -72 0
281 73 0
281 74 0
-281 -73 -74 0
282 73 0
282 75 0
-282 -73 -75 0
283 73 0
283 76 0
-283 -73 -76 0
284 73 0
284 77 0
-284 -73 -77 0
285 73 0
285 78 0
-285 -73 -78 0
286 73 0
286 79 0
-286 -73 -79 0
287 73 0
287 80 0
-287 -73 -80 0
288 73 0
288 81 0
-288 -73 -81 0
289 74 0
289 75 0
-289 -74 -75 0
290 74 0
290 76 0
-290 -74 -76 0
291 74 0
291 77 0
-291 -74 -77 0
292 74 0
292 78 0
-292 -74 -78 0
293 74 0
293 79 0
-293 -74 -79 0
294 74 0
294 80 0
-294 -74 -80 0
295 74 0
295 81 0
-295 -74 -81 0
296 75 0
296 76 0
-296 -75 -76 0
297 75 0
297 77 0
-297 -75 -77 0
298 75 0
298 78 0
-298 -75 -78 0
299 75 0
299 79 0
-299 -75 -79 0
300 75 0
300 80 0
-300 -75 -80 0
301 75 0
301 81 0
-301 -75 -81 0
302 76 0
302 77 0
-302 -76 -77 0
303 76 0
303 78 0
-303 -76 -78 0
304 76 0
304 79 0
-304 -76 -79 0
305 76 0
305 80 0
-305 -76 -80 0
306 76 0
306 81 0
-306 -76 -81 0
307 77 0
307 78 0
-307 -77 -78 0
308 77 0
308 79 0
-308 -77 -79 0
309 77 0
309 80 0
-309 -77 -80 0
310 77 0
310 81 0
-310 -77 -81 0
311 78 0
311 79 0
-311 -78 -79 0
312 78 0
312 80 0
-312 -78 -80 0
313 78 0
313 81 0
-313 -78 -81 0
314 79 0
314 80 0
-314 -79 -80 0
315 79 0
315 81 0
-315 -79 -81 0
316 80 0
316 81 0
-316 -80 -81 0
317 82 0
317 83 0
-317 -82 -83 0
318 82 0
318 84 0
-318 -82 -84 0
319 82 0
319 85 0
-319 -82 -85 0
320 82 0
320 86 0
-320 -82 -86 0
321 82 0
321 87 0
-321 -82 -87 0
322 82 0
322 88 0
-322 -82 -88 0
323 82 0
323 89 0
-323 -82 -89 0
324 82 0
324 90 0
-324 -82 -90 0
325 83 0
325 84 0
-325 -83 -84 0
326 83 0
326 85 0
-326 -83 -85 0
327 83 0
327 86 0
-327 -83 -86 0
328 83 0
328 87 0
-328 -83 -87 0
329 83 0
329 88 0
-329 -83 -88 0
330 83 0
330 89 0
-330 -83 -89 0
331 83 0
331 90 0
-331 -83 -90 0
332 84 0
332 85 0
-332 -84 -85 0
333 84 0
333 86 0
-333 -84 -86 0
334 84 0
334 87 0
-334 -84 -87 0
335 84 0
335 88 0
-335 -84 -88 0
336 84 0
336 89 0
-336 -84 -89 0
337 84 0
337 90 0
-337 -84 -90 0
338 85 0
338 86 0
-338 -85 -86 0
339 85 0
339 87 0
-339 -85 -87 0
340 85 0
340 88 0
-340 -85 -88 0
341 85 0
341 89 0
-341 -85 -89 0
342 85 0
342 90 0
-342 -85 -90 0
343 86 0
343 87 0
-343 -86 -87 0
344 86 0
344 88 0
-344 -86 -88 0
345 86 0
345 89 0
-345 -86 -89 0
346 86 0
346 90 0
-346 -86 -90 0
347 87 0
347 88 0
-347 -87 -88 0
348 87 0
348 89 0
-348 -87 -89 0
349 87 0
349 90 0
-349 -87 -90 0
350 88 0
350 89 0
-350 -88 -89 0
351 88 0
351 90 0
-351 -88 -90 0
352 89 0
352 90 0
-352 -89 -90 0
353 91 0
353 92 0
-353 -91 -92 0
354 91 0
354 93 0
-354 -91 -93 0
355 91 0
355 94 0
-355 -91 -94 0
356 91 0
356 95 0
-356 -91 -95 0
357 91 0
357 96 0
-357 -91 -96 0
358 91 0
358 97 0
-358 -91 -97 0
359 91 0
359 98 0
-359 -91 -98 0
360 91 0
360 99 0
-360 -91 -99 0
361 92 0
361 93 0
-361 -92 -93 0
362 92 0
362 94 0
-362 -92 -94 0
363 92 0
363 95 0
-363 -92 -95 0
364 92 0
364 96 0
-364 -92 -96 0
365 92 0
365 97 0
-365 -92 -97 0
366 92 0
366 98 0
-366 -92 -98 0
367 92 0
367 99 0
-367 -92 -99 0
368 93 0
368 94 0
-368 -93 -94 0
369 93 0
369 95 0
-369 -93 -95 0
370 93 0
370 96 0
-370 -93 -96 0
371 93 0
371 97 0
-371 -93 -97 0
372 93 0
372 98 0
-372 -93 -98 0
373 93 0
373 99 0
-373 -93 -99 0
374 94 0
374 95 0
-374 -94 -95 0
375 94 0
375 96 0
-375 -94 -96 0
376 94 0
376 97 0
-376 -94 -97 0
377 94 0
377 98 0
-377 -94 -98 0
378 94 0
378 99 0
-378 -94 -99 0
379 95 0
379 96 0
-379 -95 -96 0
380 95 0
380 97 0
-380 -95 -97 0
381 95 0
381 98 0
-381 -95 -98 0
382 95 0
382 99 0
-382 -95 -99 0
383 96 0
383 97 0
-383 -96 -97 0
384 96 0
384 98 0
-384 -96 -98 0
385 96 0
385 99 0
-385 -96 -99 0
386 97 0
386 98 0
-386 -97 -98 0
387 97 0
387 99 0
-387 -97 -99 0
388 98 0
388 99 0
-388 -98 -99 0
389 100 0
389 101 0
-389 -100 -101 0
390 100 0
390 102 0
-390 -100 -102 0
391 100 0
391 103 0
-391 -100 -103 0
392 100 0
392 104 0
-392 -100 -104 0
393 100 0
393 105 0
-393 -100 -105 0
394 100 0
394 106 0
-394 -100 -106 0
395 100 0
395 107 0
-395 -100 -107 0
396 100 0
396 108 0
-396 -100 -108 0
397 101 0
397 102 0
-397 -101 -102 0
398 101 0
398 103 0
-398 -101 -103 0
399 101 0
399 104 0
-399 -101 -104 0
400 101 0
400 105 0
-400 -101 -105 0
401 101 0
401 106 0
-401 -101 -106 0
402 101 0
402 107 0
-402 -101 -107 0
403 101 0
403 108 0
-403 -101 -108 0
404 102 0
404 103 0
-404 -102 -103 0
405 102 0
405 104 0
-405 -102 -104 0
406 102 0
406 105 0
-406 -102 -105 0
407 102 0
407 106 0
-407 -102 -106 0
408 102 0
408 107 0
-408 -102 -107 0
409 102 0
409 108 0
-409 -102 -108 0
410 103 0
410 104 0
-410 -103 -104 0
411 103 0
411 105 0
-411 -103 -105 0
412 103 0
412 106 0
-412 -103 -106 0
413 103 0
413 107 0
-413 -103 -107 0
414 103 0
414 108 0
-414 -103 -108 0
415 104 0
415 105 0
-415 -104 -105 0
416 104 0
416 106 0
-416 -104 -106 0
417 104 0
417 107 0
-417 -104 -107 0
418 104 0
418 108 0
-418 -104 -108 0
419 105 0
419 106 0
-419 -105 -106 0
420 105 0
420 107 0
-420 -105 -107 0
421 105 0
421 108 0
-421 -105 -108 0
422 106 0
422 107 0
-422 -106 -107 0
423 106 0
423 108 0
-423 -106 -108 0
424 107 0
424 108 0
-424 -107 -108 0
-425 128 0
-425 129 0
-425 130 0
-425 131 0
-425 132 0
-425 133 0
-425 134 0
-425 135 0
-425 136 0
-425 137 0
-425 138 0
-425 139 0
-425 140 0
-425 141 0
-425 142 0
-425 143 0
-425 144 0
-425 145 0
-425 146 0
-425 147 0
-425 148 0
-425 149 0
-425 150 0
-425 151 0
-425 152 0
-425 153 0
-425 154 0
-425 155 0
-425 156 0
-425 157 0
-425 158 0
-425 159 0
-425 160 0
-425 161 0
-425 162 0
-425 163 0
-425 164 0
-425 165 0
-425 166 0
-425 167 0
-425 168 0
-425 169 0
-425 170 0
-425 171 0
-425 172 0
-425 173 0
-425 174 0
-425 175 0
-425 176 0
-425 177 0
-425 178 0
-425 179 0
-425 180 0
-425 181 0
-425 182 0
-425 183 0
-425 184 0
-425 185 0
-425 186 0
-425 187 0
-425 188 0
-425 189 0
-425 190 0
-425 191 0
-425 192 0
-425 193 0
-425 194 0
-425 195 0
-425 196 0
-425 197 0
-425 198 0
-425 199 0
-425 200 0
-425 201 0
-425 202 0
-425 203 0
-425 204 0
-425 205 0
-425 206 0
-425 207 0
-425 208 0
-425 209 0
-425 210 0
-425 211 0
-425 212 0
-425 213 0
-425 214 0
-425 215 0
-425 216 0
-425 217 0
-425 218 0
-425 219 0
-425 220 0
-425 221 0
-425 222 0
-425 223 0
-425 224 0
-425 225 0
-425 226 0
-425 227 0
-425 228 0
-425 229 0
-425 230 0
-425 231 0
-425 232 0
-425 233 0
-425 234 0
-425 235 0
-425 236 0
-425 237 0
-425 238 0
-425 239 0
-425 240 0
-425 241 0
-425 242 0
-425 243 0
-425 244 0
-425 245 0
-425 246 0
-425 247 0
-425 248 0
-425 249 0
-425 250 0
-425 251 0
-425 252 0
-425 253 0
-425 254 0
-425 255 0
-425 256 0
-425 257 0
-425 258 0
-425 259 0
-425 260 0
-425 261 0
-425 262 0
-425 263 0
-425 264 0
-425 265 0
-425 266 0
-425 267 0
-425 268 0
-425 269 0
-425 270 0
-425 271 0
-425 272 0
-425 273 0
-425 274 0
-425 275 0
-425 276 0
-425 277 0
-425 278 0
-425 279 0
-425 280 0
-425 281 0
-425 282 0
-425 283 0
-425 284 0
-425 285 0
-425 286 0
-425 287 0
-425 288 0
-425 289 0
-425 290 0
-425 291 0
-425 292 0
-425 293 0
-425 294 0
-425 295 0
-425 296 0
-425 297 0
-425 298 0
-425 299 0
-425 300 0
-425 301 0
-425 302 0
-425 303 0
-425 304 0
-425 305 0
-425 306 0
-425 307 0
-425 308 0
-425 309 0
-425 310 0
-425 311 0
-425 312 0
-425 313 0
-425 314 0
-425 315 0
-425 316 0
-425 317 0
-425 318 0
-425 319 0
-425 320 0
-425 321 0
-425 322 0
-425 323 0
-425 324 0
-425 325 0
-425 326 0
-425 327 0
-425 328 0
-425 329 0
-425 330 0
-425 331 0
-425 332 0
-425 333 0
-425 334 0
-425 335 0
-425 336 0
-425 337 0
-425 338 0
-425 339 0
-425 340 0
-425 341 0
-425 342 0
-425 343 0
-425 344 0
-425 345 0
-425 346 0
-425 347 0
-425 348 0
-425 349 0
-425 350 0
-425 351 0
-425 352 0
-425 353 0
-425 354 0
-425 355 0
-425 356 0
-425 357 0
-425 358 0
-425 359 0
-425 360 0
-425 361 0
-425 362 0
-425 363 0
-425 364 0
-425 365 0
-425 366 0
-425 367 0
-425 368 0
-425 369 0
-425 370 0
-425 371 0
-425 372 0
-425 373 0
-425 374 0
-425 375 0
-425 376 0
-425 377 0
-425 378 0
-425 379 0
-425 380 0
-425 381 0
-425 382 0
-425 383 0
-425 384 0
-425 385 0
-425 386 0
-425 387 0
-425 388 0
-425 389 0
-425 390 0
-425 391 0
-425 392 0
-425 393 0
-425 394 0
-425 395 0
-425 396 0
-425 397 0
-425 398 0
-425 399 0
-425 400 0
-425 401 0
-425 402 0
-425 403 0
-425 404 0
-425 405 0
-425 406 0
-425 407 0
-425 408 0
-425 409 0
-425 410 0
-425 411 0
-425 412 0
-425 413 0
-425 414 0
-425 415 0
-425 416 0
-425 417 0
-425 418 0
-425 419 0
-425 420 0
-425 421 0
-425 422 0
-425 423 0
-425 424 0
425 -128 -129 -130 -131 -132 -133 -134 -135 -136 -137 -138 -139 -140 -141 -142 -143 -144 -145 -146 -147 -148 -149 -150 -151 -152 -153 -154 -155 -156 -157 -158 -159 -160 -161 -162 -163 -164 -165 -166 -167 -168 -169 -170 -171 -172 -173 -174 -175 -176 -177 -178 -179 -180 -181 -182 -183 -184 -185 -186 -187 -188 -189 -190 -191 -192 -193 -194 -195 -196 -197 -198 -199 -200 -201 -202 -203 -204 -205 -206 -207 -208 -209 -210 -211 -212 -213 -214 -215 -216 -217 -218 -219 -220 -221 -222 -223 -224 -225 -226 -227 -228 -229 -230 -231 -232 -233 -234 -235 -236 -237 -238 -239 -240 -241 -242 -243 -244 -245 -246 -247 -248 -249 -250 -251 -252 -253 -254 -255 -256 -257 -258 -259 -260 -261 -262 -263 -264 -265 -266 -267 -268 -269 -270 -271 -272 -273 -274 -275 -276 -277 -278 -279 -280 -281 -282 -283 -284 -285 -286 -287 -288 -289 -290 -291 -292 -293 -294 -295 -296 -297 -298 -299 -300 -301 -302 -303 -304 -305 -306 -307 -308 -309 -310 -311 -312 -313 -314 -315 -316 -317 -318 -319 -320 -321 -322 -323 -324 -325 -326 -327 -328 -329 -330 -331 -332 -333 -334 -335 -336 -337 -338 -339 -340 -341 -342 -343 -344 -345 -346 -347 -348 -349 -350 -351 -352 -353 -354 -355 -356 -357 -358 -359 -360 -361 -362 -363 -364 -365 -366 -367 -368 -369 -370 -371 -372 -373 -374 -375 -376 -377 -378 -379 -380 -381 -382 -383 -384 -385 -386 -387 -388 -389 -390 -391 -392 -393 -394 -395 -396 -397 -398 -399 -400 -401 -402 -403 -404 -405 -406 -407 -408 -409 -410 -411 -412 -413 -414 -415 -416 -417 -418 -419 -420 -421 -422 -423 -424 0
-425 0
